&system
ibrav = 0
celldm(1) = 1.889726125836928
nat = 12
ntyp = 2
&end
ATOMIC_SPECIES
H       1.00811000   XXX
O      15.99899998   XXX
CELL_PARAMETERS alat
	4.494253940069108 0.000000000000000  0.000000000000000
	2.247126970034554 3.903630384275165  0.000000000000000
	0.000000000000000 0.000000000000000  7.343404500317648
ATOMIC_POSITIONS alat
O 2.247126970034554 1.2378259195698593 0.43894003867417236
H 2.247126970034554 1.2476174027305973 1.4206614228590917
H 2.247126970034554 0.29169557350518244 0.16892311313825906
O 4.494253940069108 2.5537730675300523 6.879764713626269
H 5.2798489036984675 2.0580725177395798 7.200883285373226
H 3.708658981057675 2.0580725177395816 7.200883285373226
O 4.494253940069108 2.665804469323246 4.1106422865240715
H 4.494253940069108 2.656012986162512 5.092363675326875
H 4.494253940069108 3.6119348200058665 3.8406253609881267
O 2.247126970034554 1.3498573213630496 3.2080624611584563
H 1.4615320110231163 1.8455578711535154 3.5291810329054005
H 3.032721933663925 1.8455578711535154 3.5291810329054005

