 &input
   fildyn  =  'dyn'
   zasr    =  'no'
   flfrc   =  'mat2R'
 /
